Route #1: 0 69 5 30 62 60 18 42 0
Route #2: 0 25 20 34 57 37 27 0
Route #3: 0 23 26 40 10 63 65 56 67 43 17 0
Route #4: 0 72 3 54 39 6 68 0
Route #5: 0 52 75 55 61 74 36 66 16 53 11 0
Route #6: 0 1 24 38 71 51 45 31 32 29 47 0
Route #7: 0 21 58 15 73 76 49 2 0
Route #8: 0 14 9 13 70 7 46 12 0
Route #9: 0 4 59 35 33 50 0
Route #10: 0 77 44 64 41 19 28 48 22 8 0
Cost 2055:
